etc/upTests/_enums_in_types/set_int_to_int_tuple/0002.eprime
language ESSENCE' 1.0

find valid_SetExplicitVarSize_tuple1: matrix indexed by [int(1..4)] of bool
find valid_SetExplicitVarSize_tuple2_AsReln_RelationAsSet_SetExplicitVarSizeWithMarker_tuple1:
        matrix indexed by [int(1..4)] of int(0..4)
find valid_SetExplicitVarSize_tuple2_AsReln_RelationAsSet_SetExplicitVarSizeWithMarker_tuple2_tuple1:
        matrix indexed by [int(1..4), int(1..4)] of int(4..5)
find valid_SetExplicitVarSize_tuple2_AsReln_RelationAsSet_SetExplicitVarSizeWithMarker_tuple2_tuple2_tuple1:
        matrix indexed by [int(1..4), int(1..4)] of int(6, 7)
find valid_SetExplicitVarSize_tuple2_AsReln_RelationAsSet_SetExplicitVarSizeWithMarker_tuple2_tuple2_tuple2:
        matrix indexed by [int(1..4), int(1..4)] of int(9)
such that
    (sum v__0 : int(1..4) . valid_SetExplicitVarSize_tuple1[v__0]) >= 1,
    forAll v__0 : int(1..3)
        . valid_SetExplicitVarSize_tuple1[v__0]
          /\
          valid_SetExplicitVarSize_tuple1[v__0 + 1]
          ->
          (exists v__1 : int(1..4)
               . v__1
                 <=
                 valid_SetExplicitVarSize_tuple2_AsReln_RelationAsSet_SetExplicitVarSizeWithMarker_tuple1[v__0]
                 /\
                 v__1
                 <=
                 valid_SetExplicitVarSize_tuple2_AsReln_RelationAsSet_SetExplicitVarSizeWithMarker_tuple1[v__0
                                                                                                          +
                                                                                                          1]
                 /\
                 ((forAll v__2 : int(1..4)
                       . v__2 <= v__1
                         ->
                         valid_SetExplicitVarSize_tuple2_AsReln_RelationAsSet_SetExplicitVarSizeWithMarker_tuple2_tuple1[v__0,
                                                                                                                         v__2]
                         =
                         valid_SetExplicitVarSize_tuple2_AsReln_RelationAsSet_SetExplicitVarSizeWithMarker_tuple2_tuple1[v__0
                                                                                                                         +
                                                                                                                         1,
                                                                                                                         v__2]
                         /\
                         (valid_SetExplicitVarSize_tuple2_AsReln_RelationAsSet_SetExplicitVarSizeWithMarker_tuple2_tuple2_tuple1[v__0,
                                                                                                                                 v__2]
                          =
                          valid_SetExplicitVarSize_tuple2_AsReln_RelationAsSet_SetExplicitVarSizeWithMarker_tuple2_tuple2_tuple1[v__0
                                                                                                                                 +
                                                                                                                                 1,
                                                                                                                                 v__2]
                          /\
                          valid_SetExplicitVarSize_tuple2_AsReln_RelationAsSet_SetExplicitVarSizeWithMarker_tuple2_tuple2_tuple2[v__0,
                                                                                                                                 v__2]
                          =
                          valid_SetExplicitVarSize_tuple2_AsReln_RelationAsSet_SetExplicitVarSizeWithMarker_tuple2_tuple2_tuple2[v__0
                                                                                                                                 +
                                                                                                                                 1,
                                                                                                                                 v__2]))
                  /\
                  (valid_SetExplicitVarSize_tuple2_AsReln_RelationAsSet_SetExplicitVarSizeWithMarker_tuple2_tuple1[v__0,
                                                                                                                   v__1
                                                                                                                   +
                                                                                                                   1]
                   <
                   valid_SetExplicitVarSize_tuple2_AsReln_RelationAsSet_SetExplicitVarSizeWithMarker_tuple2_tuple1[v__0
                                                                                                                   +
                                                                                                                   1,
                                                                                                                   v__1
                                                                                                                   +
                                                                                                                   1]
                   \/
                   valid_SetExplicitVarSize_tuple2_AsReln_RelationAsSet_SetExplicitVarSizeWithMarker_tuple2_tuple1[v__0,
                                                                                                                   v__1
                                                                                                                   +
                                                                                                                   1]
                   =
                   valid_SetExplicitVarSize_tuple2_AsReln_RelationAsSet_SetExplicitVarSizeWithMarker_tuple2_tuple1[v__0
                                                                                                                   +
                                                                                                                   1,
                                                                                                                   v__1
                                                                                                                   +
                                                                                                                   1]
                   /\
                   (valid_SetExplicitVarSize_tuple2_AsReln_RelationAsSet_SetExplicitVarSizeWithMarker_tuple2_tuple2_tuple1[v__0,
                                                                                                                           v__1
                                                                                                                           +
                                                                                                                           1]
                    <
                    valid_SetExplicitVarSize_tuple2_AsReln_RelationAsSet_SetExplicitVarSizeWithMarker_tuple2_tuple2_tuple1[v__0
                                                                                                                           +
                                                                                                                           1,
                                                                                                                           v__1
                                                                                                                           +
                                                                                                                           1]
                    \/
                    valid_SetExplicitVarSize_tuple2_AsReln_RelationAsSet_SetExplicitVarSizeWithMarker_tuple2_tuple2_tuple1[v__0,
                                                                                                                           v__1
                                                                                                                           +
                                                                                                                           1]
                    =
                    valid_SetExplicitVarSize_tuple2_AsReln_RelationAsSet_SetExplicitVarSizeWithMarker_tuple2_tuple2_tuple1[v__0
                                                                                                                           +
                                                                                                                           1,
                                                                                                                           v__1
                                                                                                                           +
                                                                                                                           1]
                    /\
                    valid_SetExplicitVarSize_tuple2_AsReln_RelationAsSet_SetExplicitVarSizeWithMarker_tuple2_tuple2_tuple2[v__0,
                                                                                                                           v__1
                                                                                                                           +
                                                                                                                           1]
                    <
                    valid_SetExplicitVarSize_tuple2_AsReln_RelationAsSet_SetExplicitVarSizeWithMarker_tuple2_tuple2_tuple2[v__0
                                                                                                                           +
                                                                                                                           1,
                                                                                                                           v__1
                                                                                                                           +
                                                                                                                           1])
                   \/
                   valid_SetExplicitVarSize_tuple2_AsReln_RelationAsSet_SetExplicitVarSizeWithMarker_tuple1[v__0]
                   >
                   valid_SetExplicitVarSize_tuple2_AsReln_RelationAsSet_SetExplicitVarSizeWithMarker_tuple1[v__0
                                                                                                            +
                                                                                                            1]))),
    forAll v__0 : int(1..3)
        . valid_SetExplicitVarSize_tuple1[v__0]
          >=
          valid_SetExplicitVarSize_tuple1[v__0 + 1],
    forAll v__0 : int(1..4)
        . (forAll v__1 : int(1..4)
               . v__1 + 1
                 <=
                 valid_SetExplicitVarSize_tuple2_AsReln_RelationAsSet_SetExplicitVarSizeWithMarker_tuple1[v__0]
                 ->
                 valid_SetExplicitVarSize_tuple2_AsReln_RelationAsSet_SetExplicitVarSizeWithMarker_tuple2_tuple1[v__0,
                                                                                                                 v__1]
                 <
                 valid_SetExplicitVarSize_tuple2_AsReln_RelationAsSet_SetExplicitVarSizeWithMarker_tuple2_tuple1[v__0,
                                                                                                                 v__1
                                                                                                                 +
                                                                                                                 1]
                 \/
                 valid_SetExplicitVarSize_tuple2_AsReln_RelationAsSet_SetExplicitVarSizeWithMarker_tuple2_tuple1[v__0,
                                                                                                                 v__1]
                 =
                 valid_SetExplicitVarSize_tuple2_AsReln_RelationAsSet_SetExplicitVarSizeWithMarker_tuple2_tuple1[v__0,
                                                                                                                 v__1
                                                                                                                 +
                                                                                                                 1]
                 /\
                 (valid_SetExplicitVarSize_tuple2_AsReln_RelationAsSet_SetExplicitVarSizeWithMarker_tuple2_tuple2_tuple1[v__0,
                                                                                                                         v__1]
                  <
                  valid_SetExplicitVarSize_tuple2_AsReln_RelationAsSet_SetExplicitVarSizeWithMarker_tuple2_tuple2_tuple1[v__0,
                                                                                                                         v__1
                                                                                                                         +
                                                                                                                         1]
                  \/
                  valid_SetExplicitVarSize_tuple2_AsReln_RelationAsSet_SetExplicitVarSizeWithMarker_tuple2_tuple2_tuple1[v__0,
                                                                                                                         v__1]
                  =
                  valid_SetExplicitVarSize_tuple2_AsReln_RelationAsSet_SetExplicitVarSizeWithMarker_tuple2_tuple2_tuple1[v__0,
                                                                                                                         v__1
                                                                                                                         +
                                                                                                                         1]
                  /\
                  valid_SetExplicitVarSize_tuple2_AsReln_RelationAsSet_SetExplicitVarSizeWithMarker_tuple2_tuple2_tuple2[v__0,
                                                                                                                         v__1]
                  <
                  valid_SetExplicitVarSize_tuple2_AsReln_RelationAsSet_SetExplicitVarSizeWithMarker_tuple2_tuple2_tuple2[v__0,
                                                                                                                         v__1
                                                                                                                         +
                                                                                                                         1])),
    forAll v__0 : int(1..4)
        . (forAll v__1 : int(4..5)
               . (sum v__2 : int(1..4)
                      . (v__2
                         <=
                         valid_SetExplicitVarSize_tuple2_AsReln_RelationAsSet_SetExplicitVarSizeWithMarker_tuple1[v__0])
                        *
                        (v__1
                         =
                         valid_SetExplicitVarSize_tuple2_AsReln_RelationAsSet_SetExplicitVarSizeWithMarker_tuple2_tuple1[v__0,
                                                                                                                         v__2]))
                 =
                 1)
