etc/upTests/_enums_in_types/set_int_to_int_tuple/0002.eprime.solution
language ESSENCE' 1.0
$ minion Nodes: 26
$ minion TotalTime: 0.005701
$ Savile Row TotalTime: 1.526
letting valid_SetExplicitVarSize_tuple2_AsReln_RelationAsSet_SetExplicitVarSizeWithMarker_tuple1 be [2, 2, 2, 2;int(1..4)]
letting valid_SetExplicitVarSize_tuple2_AsReln_RelationAsSet_SetExplicitVarSizeWithMarker_tuple2_tuple2_tuple1 be [[6, 6, 6, 6;int(1..4)], 
[6, 6, 6, 6;int(1..4)], 
[6, 6, 6, 6;int(1..4)], 
[6, 6, 6, 6;int(1..4)];int(1..4)]
letting valid_SetExplicitVarSize_tuple2_AsReln_RelationAsSet_SetExplicitVarSizeWithMarker_tuple2_tuple2_tuple2 be [[9, 9, 9, 9;int(1..4)], 
[9, 9, 9, 9;int(1..4)], 
[9, 9, 9, 9;int(1..4)], 
[9, 9, 9, 9;int(1..4)];int(1..4)]
letting valid_SetExplicitVarSize_tuple2_AsReln_RelationAsSet_SetExplicitVarSizeWithMarker_tuple2_tuple1 be [[4, 5, 4, 4;int(1..4)], 
[4, 5, 4, 4;int(1..4)], 
[4, 5, 4, 4;int(1..4)], 
[4, 5, 4, 4;int(1..4)];int(1..4)]
letting valid_SetExplicitVarSize_tuple1 be [true, false, false, false;int(1..4)]
